25° run output:
{
    "Function": "kroB400.tsp",
    "Problem dimension": [
        173,
        223,
        195,
        259,
        67,
        83,
        53,
        353,
        316,
        116,
        346,
        340,
        180,
        276,
        171,
        7,
        291,
        118,
        311,
        389,
        314,
        241,
        292,
        206,
        226,
        397,
        255,
        240,
        317,
        163,
        333,
        243,
        103,
        45,
        106,
        28,
        10,
        149,
        284,
        242,
        36,
        80,
        178,
        142,
        46,
        378,
        335,
        119,
        245,
        218,
        329,
        244,
        208,
        224,
        376,
        175,
        60,
        252,
        71,
        273,
        79,
        64,
        102,
        230,
        199,
        23,
        370,
        161,
        17,
        177,
        9,
        277,
        369,
        358,
        69,
        281,
        125,
        153,
        251,
        305,
        58,
        104,
        30,
        120,
        289,
        222,
        186,
        76,
        356,
        304,
        343,
        127,
        88,
        303,
        278,
        354,
        248,
        43,
        16,
        319,
        235,
        272,
        108,
        338,
        0,
        132,
        57,
        330,
        170,
        315,
        98,
        27,
        256,
        112,
        166,
        172,
        187,
        271,
        68,
        326,
        113,
        33,
        179,
        52,
        238,
        331,
        147,
        307,
        368,
        29,
        89,
        1,
        82,
        380,
        228,
        167,
        85,
        129,
        351,
        75,
        73,
        152,
        270,
        159,
        143,
        26,
        131,
        323,
        197,
        107,
        250,
        137,
        318,
        201,
        192,
        294,
        93,
        328,
        279,
        139,
        322,
        63,
        392,
        182,
        95,
        87,
        160,
        372,
        310,
        387,
        320,
        367,
        121,
        357,
        394,
        70,
        225,
        135,
        347,
        299,
        207,
        247,
        339,
        5,
        32,
        117,
        105,
        81,
        286,
        188,
        374,
        100,
        194,
        280,
        257,
        50,
        184,
        362,
        302,
        62,
        264,
        198,
        293,
        363,
        298,
        283,
        393,
        42,
        288,
        18,
        375,
        181,
        138,
        253,
        211,
        2,
        398,
        130,
        266,
        22,
        233,
        12,
        47,
        97,
        20,
        126,
        146,
        308,
        99,
        313,
        204,
        327,
        342,
        8,
        145,
        122,
        268,
        345,
        382,
        51,
        216,
        352,
        269,
        90,
        365,
        360,
        385,
        237,
        150,
        396,
        13,
        306,
        31,
        324,
        19,
        321,
        300,
        11,
        234,
        158,
        262,
        196,
        386,
        134,
        210,
        265,
        215,
        297,
        133,
        38,
        239,
        72,
        209,
        261,
        373,
        21,
        388,
        350,
        344,
        249,
        349,
        54,
        399,
        114,
        124,
        154,
        282,
        236,
        334,
        390,
        49,
        332,
        391,
        3,
        274,
        111,
        155,
        296,
        232,
        91,
        366,
        15,
        183,
        168,
        92,
        231,
        86,
        176,
        66,
        260,
        341,
        290,
        140,
        258,
        128,
        96,
        200,
        190,
        379,
        41,
        144,
        34,
        246,
        193,
        325,
        381,
        275,
        377,
        162,
        59,
        214,
        123,
        203,
        48,
        65,
        169,
        395,
        14,
        101,
        285,
        40,
        35,
        77,
        202,
        219,
        136,
        165,
        336,
        24,
        263,
        348,
        221,
        37,
        61,
        84,
        141,
        148,
        110,
        39,
        94,
        309,
        185,
        151,
        287,
        6,
        164,
        56,
        220,
        213,
        229,
        227,
        78,
        25,
        156,
        359,
        384,
        383,
        189,
        4,
        312,
        74,
        301,
        371,
        55,
        364,
        254,
        355,
        109,
        212,
        44,
        191,
        337,
        157,
        217,
        174,
        295,
        115,
        361,
        267,
        205
    ],
    "Global Optimum": 0,
    "Algorithm": "Genetic algorithm",
    "Parameters": {
        "population": 30,
        "offspring": 30,
        "mutation probability": 0.0025,
        "crossover probability": 0.9
    },
    "Fitness": 441826,
    "Solution": [
        173,
        223,
        195,
        259,
        67,
        83,
        53,
        353,
        316,
        116,
        346,
        340,
        180,
        276,
        171,
        7,
        291,
        118,
        311,
        389,
        314,
        241,
        292,
        206,
        226,
        397,
        255,
        240,
        317,
        163,
        333,
        243,
        103,
        45,
        106,
        28,
        10,
        149,
        284,
        242,
        36,
        80,
        178,
        142,
        46,
        378,
        335,
        119,
        245,
        218,
        329,
        244,
        208,
        224,
        376,
        175,
        60,
        252,
        71,
        273,
        79,
        64,
        102,
        230,
        199,
        23,
        370,
        161,
        17,
        177,
        9,
        277,
        369,
        358,
        69,
        281,
        125,
        153,
        251,
        305,
        58,
        104,
        30,
        120,
        289,
        222,
        186,
        76,
        356,
        304,
        343,
        127,
        88,
        303,
        278,
        354,
        248,
        43,
        16,
        319,
        235,
        272,
        108,
        338,
        0,
        132,
        57,
        330,
        170,
        315,
        98,
        27,
        256,
        112,
        166,
        172,
        187,
        271,
        68,
        326,
        113,
        33,
        179,
        52,
        238,
        331,
        147,
        307,
        368,
        29,
        89,
        1,
        82,
        380,
        228,
        167,
        85,
        129,
        351,
        75,
        73,
        152,
        270,
        159,
        143,
        26,
        131,
        323,
        197,
        107,
        250,
        137,
        318,
        201,
        192,
        294,
        93,
        328,
        279,
        139,
        322,
        63,
        392,
        182,
        95,
        87,
        160,
        372,
        310,
        387,
        320,
        367,
        121,
        357,
        394,
        70,
        225,
        135,
        347,
        299,
        207,
        247,
        339,
        5,
        32,
        117,
        105,
        81,
        286,
        188,
        374,
        100,
        194,
        280,
        257,
        50,
        184,
        362,
        302,
        62,
        264,
        198,
        293,
        363,
        298,
        283,
        393,
        42,
        288,
        18,
        375,
        181,
        138,
        253,
        211,
        2,
        398,
        130,
        266,
        22,
        233,
        12,
        47,
        97,
        20,
        126,
        146,
        308,
        99,
        313,
        204,
        327,
        342,
        8,
        145,
        122,
        268,
        345,
        382,
        51,
        216,
        352,
        269,
        90,
        365,
        360,
        385,
        237,
        150,
        396,
        13,
        306,
        31,
        324,
        19,
        321,
        300,
        11,
        234,
        158,
        262,
        196,
        386,
        134,
        210,
        265,
        215,
        297,
        133,
        38,
        239,
        72,
        209,
        261,
        373,
        21,
        388,
        350,
        344,
        249,
        349,
        54,
        399,
        114,
        124,
        154,
        282,
        236,
        334,
        390,
        49,
        332,
        391,
        3,
        274,
        111,
        155,
        296,
        232,
        91,
        366,
        15,
        183,
        168,
        92,
        231,
        86,
        176,
        66,
        260,
        341,
        290,
        140,
        258,
        128,
        96,
        200,
        190,
        379,
        41,
        144,
        34,
        246,
        193,
        325,
        381,
        275,
        377,
        162,
        59,
        214,
        123,
        203,
        48,
        65,
        169,
        395,
        14,
        101,
        285,
        40,
        35,
        77,
        202,
        219,
        136,
        165,
        336,
        24,
        263,
        348,
        221,
        37,
        61,
        84,
        141,
        148,
        110,
        39,
        94,
        309,
        185,
        151,
        287,
        6,
        164,
        56,
        220,
        213,
        229,
        227,
        78,
        25,
        156,
        359,
        384,
        383,
        189,
        4,
        312,
        74,
        301,
        371,
        55,
        364,
        254,
        355,
        109,
        212,
        44,
        191,
        337,
        157,
        217,
        174,
        295,
        115,
        361,
        267,
        205
    ],
    "Nb of functions evaluations": 200010,
    "Computational time in seconds": 549.5442283153534,
    "Stopping criterion in evaluations": 200000
}